c turning on binary mode checking
c parsing input formula with 259840 variables and 1039934 clauses
c finished parsing, read 3309180 bytes from proof file
c detected empty clause; start verification via backward checking
c 919 of 1039934 clauses in core                            
c 99 of 129721 lemmas in core using 6649 resolution steps
c 0 RAT lemmas in core; 20 redundant literals in core lemmas
s VERIFIED
c verification time: 1.172 seconds
